NAME : fri26.5326.tour
COMMENT : Cost = 0_5326
COMMENT : Found by LKH [Keld Helsgaun] Thu Nov 16 16:23:54 2017
TYPE : TOUR
DIMENSION : 45
TOUR_SECTION
1
2
27
3
28
14
29
12
30
13
31
11
32
10
33
25
34
4
35
5
36
9
37
6
38
21
39
7
40
16
41
24
23
42
22
26
44
8
43
17
18
20
19
45
15
-1
EOF
